n_res = 4;
rcap = [30, 31, 44, 54];
rtype = [1, 1, 2, 2];
n_tasks = 18;
modes = [ {1, 2, 3}, {4, 5, 6}, {7, 8, 9}, {10, 11, 12}, {13, 14, 15}, {16, 17, 18}, {19, 20, 21}, {22, 23, 24}, {25, 26, 27}, {28, 29, 30}, {31, 32, 33}, {34, 35, 36}, {37, 38, 39}, {40, 41, 42}, {43, 44, 45}, {46, 47, 48}, {49, 50, 51}, {52, 53, 54} ];
succ = [ {7}, {6, 10, 11}, {4, 5, 7}, {8, 13, 15}, {12}, {9, 12}, {9, 10, 14}, {12}, {13, 16}, {15, 18}, {14, 18}, {16, 17}, {17, 18}, {15, 17}, {16}, {}, {}, {} ];
n_opt = 54;
dur = [2, 5, 5, 1, 3, 4, 2, 4, 8, 1, 8, 10, 2, 4, 8, 2, 6, 8, 3, 8, 10, 7, 8, 9, 3, 7, 9, 4, 10, 10, 3, 9, 10, 1, 2, 3, 1, 2, 9, 1, 4, 4, 2, 5, 6, 1, 6, 9, 4, 5, 5, 6, 6, 9];
rreq = [|  0,  0,  0,  8,  8,  7,  8,  0,  0,  0, 10,  3,  0,  0,  0,  0,  0,  0,  3,  0,  0,  8,  6,  0,  6,  0,  4,  0,  0,  8,  8,  7,  7,  6,  0,  0,  6,  0,  0,  6,  0,  0,  6,  6,  0,  0, 10,  0,  5,  3,  0,  8,  4,  0
        |  9,  8,  5,  0,  0,  0,  0,  8,  3,  4,  0,  0,  6,  4,  2, 10,  9,  8,  0, 10, 10,  0,  0,  9,  0,  6,  0,  8,  5,  0,  0,  0,  0,  0,  5,  3,  0,  8,  3,  0,  7,  8,  0,  0,  4,  8,  0,  4,  0,  0,  7,  0,  0,  3
        |  0,  0,  4,  9,  8,  0,  0,  3,  0,  6,  0,  4,  0,  9,  0,  0,  0,  0,  6,  6,  4,  8,  0,  0,  0,  0,  7,  4,  0,  0,  1,  0,  1,  3,  0,  2,  6,  5,  0,  0,  4,  0,  0,  2,  2,  0,  6,  4,  0,  4,  0,  0,  2,  0
        |  7,  6,  0,  0,  0,  4,  3,  0,  2,  0,  9,  0,  5,  0,  1,  5,  4,  1,  0,  0,  0,  0,  8,  6,  6,  4,  0,  0,  3,  2,  0,  7,  0,  0, 10,  0,  0,  0,  4,  8,  0,  7,  4,  0,  0,  6,  0,  0,  8,  0,  8,  8,  0, 10 |];
